NAME: bip_60_4
TYPE: TSP
COMMENT: bip_60_4
DIMENSION: 60
EDGE_WEIGHT_TYPE: EUC_2D
NODE_COORD_SECTION
1 32 50
2 45 68
3 5 30
4 11 7
5 34 27
6 84 54
7 67 66
8 24 1
9 49 39
10 97 52
11 41 39
12 49 86
13 51 35
14 46 77
15 67 57
16 90 72
17 20 33
18 84 34
19 81 16
20 77 22
21 13 65
22 98 28
23 48 8
24 41 93
25 6 10
26 62 62
27 80 30
28 23 17
29 73 34
30 78 32
31 438 420
32 419 496
33 446 410
34 451 472
35 446 418
36 496 468
37 499 430
38 414 407
39 464 445
40 495 460
41 441 414
42 401 404
43 462 473
44 492 445
45 493 404
46 465 462
47 493 452
48 460 438
49 400 498
50 440 419
51 493 475
52 417 499
53 450 453
54 474 482
55 465 410
56 429 409
57 498 481
58 447 416
59 492 497
60 481 456
